(set-logic QF_S)
(declare-fun H () String)
(declare-fun F () String)
(declare-fun E () String)
(declare-fun A () String)
(declare-fun G () String)
(declare-fun C () String)
(assert (= (str.++  "badcdaadcabbbbc" C "cdccdbcbacaccbdbdcddacbdddcbacbaac")  (str.++  "badcdaadcabbbbcdbbcaadababbdbbadbdbcababcbcbbdcbc" E "acbdddcbacbaac") ))
(assert (= (str.++  "adabcbbcdbddcdcabcaad" H "badbdaacccaabaaaab")  (str.++  "adabcbbcdbddcdcabcaa" F "aaab") ))
(assert (= (str.++  "cdcacdabcacaddddbacbcbdaa" C "addbddacccbdbbacdabbdcbdacbdadcbbcbdcdbaadbcbddccddcaddbcb")  (str.++  "cdcacdabcacaddddbacbcbdaacacdaacbcb" A "dadcbbcbdcdbaadbcbddccddcaddbcb") ))
(assert (= (str.++  "ccadaaddcadacbbdbbdaacdbdaaab" H "bbbcdbdabdabdaaddcdcbdbccdadcdbadbaddcaaaadbc")  (str.++  "ccadaaddcadac" E "dccdcbbbcdbdabdabdaaddcdcbdbccdadcdbadbaddcaaaadbc") ))
(assert (= (str.++  "ccd" G "aadddcacb" G "acbacccdccabbcccacdcadbbbcdadabbccbaddcac" G "bdaaacdabbcacaaadabccddbddbbdadcdabcdad")  (str.++  "ccd" G "aadddcacbdb" E "ddcacdbbdaaacdabbcacaaadabccd" G "ddbbdadcdabcdad") ))
(assert (= (str.++  "dddcdccdacdccdbdccdadda" G "cadcabdbb" G "ab" G "ddadddcbcbdaaabaabacabcd" G "accbbadaaaccc" G "aaaadddcabbdcacca")  (str.++  "dddcdccdacdcc" G "dccdadda" G "cadcab" G "b" G "ab" G "ddadddcbcbdaaabaabacabcddbaccbbadaaacccdbaaaadddcabbdcacca") ))
(assert (= (str.++  "dbccdaabadadaabdacadaadadcabdcbcadcdcadddbbb" G "badabdbdaacacdabccabcbbcccbbcaaddacbabacaddbabdccabc")  (str.++  "dbccdaabadadaabdacadaadadcabdcbcadcdcadd" G "bb" G "badab" G "daacacdabccabcbbcccbbcaaddacbabacad" G "abdccabc") ))
(assert (= (str.++  "aadaccbdcacaababcabcadaccdaabacbcdddbacadad" G "cadcdcbdcdaaaabcadabadcadcbdacddbcbdadacabbcbcdbcb" G "a")  (str.++  "aadaccbdcacaababcabcadaccdaabacbcdddbacadad" G "cadcdcbdcdaaaabcadabadcadcbdacd" G "cbdadacabbcbcdbcb" G "a") ))
(assert (= (str.++  "accdcbadaadadabbdccddacaaadcbdbcccabcbbadbbacdadddcd" G "bcbdbcacbbaaaaacadbdabadabbddb" G "aabdaaacbbad")  (str.++  "accdcbadaadadabbdccddacaaadcbdbcccabcbbadbbacdadddcd" G "bcbdbcacbbaaaaaca" G "dabadabbddbdbaabdaaacbbad") ))
(assert (= (str.++  "bbabbbacddddbdddcbddadcbabdadcccccdcdaccdccbbacbadcdaacaabcbcbbaadadcddcbcbbcbdcddbbbbdab" G "aadaa" G)  (str.++  "bbabbbacddddbdddcbddadcbabdadcccccdcdaccdccbbacbadcdaacaabcbcbbaadadcddcbcbbcbdcddbbbbdabdbaadaadb" "") ))
(assert (= (str.++  "ccccbdaacbbbdadcaddadcaa" G "abcdacdccdb" G "aa" G "ddcdadcbaaabdacbbddadac" G "daaadbdbcbacaacdacacddcadabbdc")  (str.++  "ccccbdaacbbbdadcaddadcaa" G "abcdacdcc" G "dbaadbddcdadcbaaabdacbbddadac" G "daaa" G G "cbacaacdacacddcadabbdc") ))
(assert (= (str.++  "cadaababcaabddd" G "dbddcadddd" G "babbbdddacdccacaaccdcbdaaccacd" G G "b" G "abddcbbbadbbbabaabccbacbadbaa" G "c")  (str.++  "cadaababcaabddddb" G "ddcadddd" G "babbbdddacdccacaaccdcbdaaccacddb" G "b" G "abddcbbbadbbbabaabccbacbadbaadbc") ))
(assert (= (str.++  "acbadcccbcadaacbbdadcb" G "acdaabacbccbbbcdbdabbaacdcccdadaaadccccbaccaadacbcbb" G "baabdab" G "abbdcdabdaa")  (str.++  "acbadcccbcadaacbbdadcb" G "acdaabacbccbbbcdbdabbaacdcccdadaaadccccbaccaadacbcbbdbbaabdab" G "abbdcdabdaa") ))
(assert (= (str.++  "acccddabdadabbdcab" G "adcabcacdabaccbbbacaacbacccacaaaadddacdcdcbdaacadadaacbcccdcacaaddabdddcabddbb")  (str.++  "acccddabdadabbdcabdbadcabcacdabaccbbbacaacbacccacaaaadddacdcdcbdaacadadaacbcccdcacaaddabdddcabddbb" "") ))
(assert (= (str.++  "d" G "acadcbdaabbccb" G "cbcbcdcabccbacddbcddcabcacbbbbbcadccbbdcabaa" G "dd" G "c" G "ccbcddbabcadccbdcadccbcdab")  (str.++  "ddbacadcbdaabbccbdbcbcbcdcabccbacd" G "cddcabcacbbbbbcadccbbdcabaa" G "dd" G "cdbccbcddbabcadccbdcadccbcdab") ))
(assert (= (str.++  "dadabacdaadbaaccbacbadaaaaaaacbddddc" G "abaddcbcbcbdadcbabccbdddbadadacbacaadaacbb" G "baccadddcbcadcda")  (str.++  "dadabacdaadbaaccbacbadaaaaaaacbddddc" G "abaddcbcbcbdadcbabccbdd" G "adadacbacaadaacbbdbbaccadddcbcadcda") ))
(assert (= (str.++  "acaccabdabdcabdaadacddcdcbbdccacccd" G "ddad" G "aaabaccbac" G "bbcbcabadacbaccccbaacdbbdcbbbcdacaaacbaac" G)  (str.++  "acaccabdabdcabdaadacddcdcbbdccacccddbddad" G "aaabaccbacdbbbcbcabadacbaccccbaac" G "bdcbbbcdacaaacbaac" G) ))
(assert (= (str.++  "dbdaaaadcaacbdd" G "aacbdaaadadaabdccbdacaccbacdbbcc" G "accdddabdaabcadaba" G "aadacdaabaabbbaabbcaacadaad")  (str.++  G "daaaadcaacbdd" G "aacbdaaadadaabdccbdacaccbac" G "bccdbaccdddabdaabcadaba" G "aadacdaabaabbbaabbcaacadaad") ))
(assert (= (str.++  "dbaabaddc" G "ddacbacccddcddaadddccbcbdccddccdddccdcbaccabcaabaaa" G "bacbcbbaabc" G "ccbdcdddcdcaaddaaaaba")  (str.++  G "aabaddcdbddacbacccddcddaadddccbcbdccddccdddccdcbaccabcaabaaa" G "bacbcbbaabcdbccbdcdddcdcaaddaaaaba") ))
(assert (= (str.++  "aabdaabccbcdccadcbaabdddaacccadcdcabbadddddccdddacbabbdaccbdcdddcda" G "bcdbcdabcbbdbccbcbbabdadbdabb")  (str.++  "aabdaabccbcdccadcbaabdddaacccadcdcabbadddddccdddacbabbdaccbdcdddcdadbbc" G "cdabcbb" G "ccbcbbabda" G "dabb") ))
(assert (= (str.++  "bbcdcbbccadddcdcbdcdcdbdddcdcbcbc" G "bddabdbdaaadddcdcacb" G "abbbd" G "bccacddacabcbcdbdaa" G "dbcddddaccddc")  (str.++  "bbcdcbbccadddcdcbdcdcdbdddcdcbcbcdbbddabdbdaaadddcdcacbdbabbbd" G "bccacddacabcbcdbdaadb" G "cddddaccddc") ))
(assert (= (str.++  "abcabcaccbbbcdcccabacddccdaccacbaacadccdaaddda" G "ababcbdacabccdacada" G "bbddbcbacddccaab" G "adcaacccaab")  (str.++  "abcabcaccbbbcdcccabacddccdaccacbaacadccdaaddda" G "ababcbdacabccdacada" G "bbd" G "cbacddccaab" G "adcaacccaab") ))
(assert (= (str.++  "bda" G "bababbc" G "aacddaaadadabcaddddddadad" G "dccbabccacdc" G "bbbcabccacdccddcadbbaacdbbadaccbdcacaadddcb")  (str.++  "bda" G "bababbc" G "aacddaaadadabcaddddddadaddbdccbabccacdc" G "bbbcabccacdccddcadbbaac" G "badaccbdcacaadddcb") ))
(assert (= (str.++  "caaccabdadcabbadbacdcabbcddabda" G "ababbccadcdabddcdcabdddcabbdbaaccbbd" G "cad" G "dacbdabcaab" G "dcabcdbdc")  (str.++  "caaccabdadcabbadbacdcabbcddabdadbababbccadcdabddcdcabdddcabbdbaaccbbddbcad" G "dacbdabcaabdbdcabc" G "dc") ))
(assert (= (str.++  "ccacacdacaadcddccccdacbccdadb" G "c" G "aaabcdbcababaabcbcabdbacbaabdddbccdbcbdccdb" G "abcaaabcaccacaabbba")  (str.++  "ccacacdacaadcddccccdacbccda" G "dbcdbaaabcdbcababaabcbcab" G "acbaabdddbcc" G "cbdcc" G G "abcaaabcaccacaabbba") ))
(assert (= (str.++  "abccdadcbbddaacdcccbacbaccdacbdcbadcdcabddaadaccbddacbdcbcabbcbdbccaacbaaccacddcbbdddabbacdbbdabcc" "")  (str.++  "abccdadcbbddaacdcccbacbaccdacbdcbadcdcabddaadaccbddacbdcbcabbcbdbccaacbaaccacddcbbdddabbac" G "bdabcc") ))
(assert (= (str.++  "bb" G "bcd" G "bdcd" G "cdaccccda" G "ccbcaadddaaadaddcccdcbacbdcaddaaabbbaccbcbbadbacccdadcbcbcaadaddcaaacdad")  (str.++  "bb" G "bcd" G "bdcddbcdaccccdadbccbcaadddaaadaddcccdcbacbdcaddaaabbbaccbcbba" G "acccdadcbcbcaadaddcaaacdad") ))
(assert (= (str.++  "dcabcadcdabccabbbbacaaddbccadbdaadddccab" G "dabdccababbcaaddcdcbcbaaaccbdbadcbcaabbdcabbccbcbacccdca")  (str.++  "dcabcadcdabccabbbbacaaddbccadbdaadddccabdbdabdccababbcaaddcdcbcbaaaccbdbadcbcaabbdcabbccbcbacccdca" "") ))
(assert (= (str.++  "bddcacbcaacacacdccabbdbb" G "d" G "bbaabbaacadacbdadcabbcccbbccabbababd" G "dcabbacbb" G G "babddccacdabcbbddd")  (str.++  "bddcacbcaacacacdccabbdbbdbd" G "bbaabbaacadacbdadcabbcccbbccabbababddbdcabbacbb" G "dbbabddccacdabcbbddd") ))
(assert (= (str.++  "adcacacbacdcddadcddadccbbabdccccbabacacbdccacbccdcbaddbdaacbadcaccdaacaccdbcadbcdaaacbaadccbbbbaba" "")  (str.++  "adcacacbacdcddadcddadccbbabdccccbabacacbdccacbccdcbad" G "daacbadcaccdaacaccdbca" G "cdaaacbaadccbbbbaba") ))
(assert (= (str.++  "adbcccadabdccdcbcbbddccccbdcabdcadcdad" G G "aabaccbbcdaacdbcaadabbcdcbdcccbbbddccbdcbcabcddcbcdbabab")  (str.++  "a" G "cccadabdccdcbcbbddccccbdcabdcadcdad" G "dbaabaccbbcdaac" G "caadabbcdcbdcccbbbddccbdcbcabcddcbcdbabab") ))
(assert (= (str.++  "dadacaaccbcdaacac" G "bcbb" G "bcdadddabcacbcacddbcbbddbcdadabcbcaddaabdccacbbacdadcaab" G "baccadaccca" G "ba")  (str.++  "dadacaaccbcdaacac" G "bcbbdbbcdadddabcacbcacddbcbbd" G "cdadabcbcaddaabdccacbbacdadcaabdbbaccadacccadbba") ))
(assert (= (str.++  "cbdaddccbbcdabaacbacdbcbacbdaacbccbddbadcdabdcaaaaabcacdbbccbcaccdcdcca" G "abdbabaacdbbcbcacadcaacda")  (str.++  "cbdaddccbbcdabaacbac" G "cbacbdaacbccbddbadcdabdcaaaaabcacdbbccbcaccdcdcca" G "abdbabaac" G "bcbcacadcaacda") ))
(assert (= (str.++  "aabcaccaabdccadccdaabbacdabdcddcbdadaacbacdaaaadcddcbbcbaacadbdacdaadacbbadabbcbaadabadbdaababa" G "d")  (str.++  "aabcaccaabdccadccdaabbacdabdcddcbdadaacbacdaaaadcddcbbcbaaca" G "dacdaadacbbadabbcbaadabadbdaababa" G "d") ))
(assert (= (str.++  G "bdcdccdcdabd" G "ccbbabdcbcadbbaabdbb" G "ca" G "bbccbacddcccaa" G "acbdcbaaabcddccbcbadacabbbdcdcbaccdcbbbb")  (str.++  "dbbdcdccdcdabddbccbbabdcbca" G "baab" G "b" G "ca" G "bbccbacddcccaa" G "acbdcbaaabcddccbcbadacabbbdcdcbaccdcbbbb") ))
(assert (= (str.++  "ccbdcddcdcabcaabcacbbabd" G "addaccdcaba" G "cdabdbacaccacdbacbdacdbcabdababac" G "cbc" G "bcccdaaadaaca" G "dcbc")  (str.++  "ccbdcddcdcabcaabcacbbabd" G "addaccdcabadbcdabdbacaccac" G "acbdac" G "cabdababacdbcbc" G "bcccdaaadaaca" G "dcbc") ))
(assert (= (str.++  "cddacbabddcdaccbdacababaaccbddcbcbbddadaadddbabccabcbabbb" G "aacaad" G "ccacdabcdacbbddddd" G "ccacbabdadd")  (str.++  "cddacbabddcdaccbdacababaaccbddcbcbbddadaadd" G "abccabcbabbbdbaacaad" G "ccacdabcdacbbddddd" G "ccacbabdadd") ))
(assert (= (str.++  "cccbdab" G "cdabbababacaaadddadb" G "daccabbdbabddddaaaddacdbcbdadcb" G "acbdadadcbaaccddcbcdcabaaacbbdcdac")  (str.++  "cccbdabdbcdabbababacaaaddda" G G "daccabb" G "abddddaaaddac" G "cbdadcb" G "acbdadadcbaaccddcbcdcabaaacbbdcdac") ))
(assert (= (str.++  "c" G "cbcdddbbaabadabdadcabaadabccc" G "bcbddddcdccabaadddabbcdcccdcabbabc" G "daccbdbac" G "aacbdacbddbacbcdc")  (str.++  "c" G "cbcdddbbaabadabdadcabaadabccc" G "bcbddddcdccabaadddabbcdcccdcabbabcdbdaccbdbac" G "aacbdacbd" G "acbcdc") ))
(assert (= (str.++  "cabbccaadccabccbdcbbbabadbacbaaccdccb" G "dd" G "adadcacdadaaadbd" G "a" G "cdccbaad" G "adaaaccadadadddaad" G "cccb")  (str.++  "cabbccaadccabccbdcbbbaba" G "acbaaccdccbdbdddbadadcacdadaaadbd" G "adbcdccbaad" G "adaaaccadadadddaad" G "cccb") ))
(assert (= (str.++  "dacdcaacadabababcacabcddadaacaaabcaabadccaabaccaddbacddbbbbbbcaddccbbbcab" G "cbadbbbbdcaaddadacccbbc")  (str.++  "dacdcaacadabababcacabcddadaacaaabcaabadccaabaccaddbacddbbbbbbcaddccbbbcab" G "cbadbbbbdcaaddadacccbbc") ))
(assert (= (str.++  "ccadabbdbacaddcaabbbccaaabbbabdbabdabada" G "bbdccdbccbadcbccabccdcbcaabddc" G "ddbbbcdccaaaca" G "aaddddab")  (str.++  "ccadabb" G "acaddcaabbbccaaabbbabdbabdabadadbbbdcc" G "ccbadcbccabccdcbcaabddcdbd" G "bbcdccaaaca" G "aaddddab") ))
(assert (= (str.++  "dbabdabdbabddacccdcccbddbabbdb" G "abbddacadac" G "acdbbcc" G "aacdcabbacbbadbaaadaadcbaaadcdcabdddcaacbdcd")  (str.++  "dbabdabdbabddacccdcccbddbabbdbdbabbddacadacdbacdbbccdbaacdcabbacbba" G "aaadaadcbaaadcdcabdddcaacbdcd") ))
(assert (= (str.++  "cbbbc" G "caaadcdddcbb" G "dcabadcdaaccccacabaadcdacdbdbb" G "d" G "ad" G "acbcbdabaaddbdcbacbcac" G "ddacabacaabcbc")  (str.++  "cbbbcdbcaaadcdddcbb" G "dcabadcdaaccccacabaadcdacdbdbb" G "d" G "addbacbcbdabaaddbdcbacbcacdbddacabacaabcbc") ))
(assert (= (str.++  "abaacccccbbbbcc" G "dccbdaacaaadcadaaacd" G "abcaabbcadacadbdadccbbbabbabdab" G "bcb" G "bcaccbadccbcdabbaadcc")  (str.++  "abaacccccbbbbcc" G "dccbdaacaaadcadaaacddbabcaabbcadacadbdadccbbbabbabdabdbbcbdbbcaccbadccbcdabbaadcc") ))
(assert (= (str.++  "cbaddcacbacdc" G "bdabddcddaacdacabcabccbbcbbdbcdabcca" G "cadcbcbacdaca" G "aadddbbcbaccbbbabddbacbdcdaabc")  (str.++  "cbaddcacbacdcdbbdabddcddaacdacabcabccbbcbb" G "cdabcca" G "cadcbcbacdaca" G "aadddbbcbaccbbbabd" G "acbdcdaabc") ))
(assert (= (str.++  "caaacbcacdcbdd" G "bddaccabdcccbacabcdddbdd" G "ccabcacddabcddddbdcdadabacbacbcccddcccccacacaddbcbbb" G "bd")  (str.++  "caaacbcacdcbdd" G "bddaccabdcccbacabcdddbdddbccabcacddabcddd" G "dcdadabacbacbcccddcccccacacad" G "cbbbdbbd") ))
(assert (= (str.++  "addccaaaabbbcabaabacdadbbcbccacdbacdccabadcaccca" G "adbcdadadddaaddadcaadabaacc" G "cbcdcddadadcabcbadd")  (str.++  "addccaaaabbbcabaabacda" G "bcbccac" G "acdccabadcacccadba" G "cdadadddaaddadcaadabaaccdbcbcdcddadadcabcbadd") ))
(assert (= (str.++  "bcdcccbaaabccbbaddcddcddcabccabddbacbbbaccaccdcacccaddbbcdccabbcaaccc" G "cadcaddbddbb" G "bc" G "cccbccdca")  (str.++  "bcdcccbaaabccbbaddcddcddcabccabddbacbbbaccaccdcacccad" G "bcdccabbcaacccdbcadcad" G "d" G "b" G "bc" G "cccbccdca") ))
(assert (= (str.++  "aaaabbdcaccabadaacbbdccbbaacad" G "bbdddcbc" G "cbccbcdcdaccbbdacbbb" G "adcaadccbccdcada" G "cd" G "cdcbccbaaadb")  (str.++  "aaaabbdcaccabadaacbbdccbbaacaddbbbdddcbc" G "cbccbcdcdaccbbdacbbb" G "adcaadccbccdcada" G "cd" G "cdcbccbaaadb") ))
(assert (= (str.++  "daaaabb" G "aacbbacbdcc" G "cc" G "dcbcadbddcdcbcadcbcccbcadbcdcddabcaaccccaadacadcacccdcbaabbccaadadadbdca")  (str.++  "daaaabb" G "aacbbacbdccdbccdbdcbcadbddcdcbcadcbcccbcadbcdcddabcaaccccaadacadcacccdcbaabbccaadadadbdca") ))
(assert (= (str.++  "cab" G "bcbbdbadabacbccbabdcdbdaaaaabbcbbaba" G "caccacbdbbbadcddaaabbcbaccc" G "dcabbdabddcababbaaaabbaccc")  (str.++  "cab" G "bcbb" G "adabacbccbabdc" G "daaaaabbcbbabadbcaccacbdbbbadcddaaabbcbacccdbdcabbdabddcababbaaaabbaccc") ))
(assert (= (str.++  "cabbabccdacd" G "ddabcdcbdcbddabbaddbacbbbddddd" G "acccb" G "acbcaaabccbdcdddd" G "ad" G "baadbcbcdacdba" G "caaabc")  (str.++  "cabbabccdacd" G "ddabcdcbdcbddabbad" G "acbbbddddddbacccbdbacbcaaabccbdcdddd" G "ad" G "baa" G "cbcdac" G "adbcaaabc") ))
(assert (= (str.++  "abcbcbacbabccccbdcddaaabcdcd" G "ccddccbdabdcbdaccdacdacadccccbdcccbcabcaabcbdcbdabbbdabacddadaacacac")  (str.++  "abcbcbacbabccccbdcddaaabcdcd" G "ccddccbdabdcbdaccdacdacadccccbdcccbcabcaabcbdcbdabbbdabacddadaacacac") ))
(assert (= (str.++  "bbdccaacabbcbccddbcbbdcdcccababadccdccdcaabbadabdaacabadbcdbcbbabbddcdabbbcc" G "cadabccccbabbddcadaa")  (str.++  "bbdccaacabbcbccd" G "cbbdcdcccababadccdccdcaabbadabdaacaba" G "cdbcbbabbddcdabbbccdbcadabccccbabbddcadaa") ))
(assert (= (str.++  "bcaccdaa" G "dacadcdadbc" G G "bdbbaabaabbbcdaccbdcabc" G "dbdcabbbadddcdcbabcc" G "dbbccabbccddaaaaabddbacbbb")  (str.++  "bcaccdaa" G "dacadcda" G "c" G G "b" G "baabaabbbcdaccbdcabc" G G "dcabbbadddcdcbabcc" G G "bccabbccddaaaaabddbacbbb") ))
(assert (= (str.++  "adabbba" G "abdaaabbcbdcbcda" G "acdabccbcbaaacacbdababcbdaccdcdcdddcccaadccaaabbcdcbcbad" G "dccddcacdacdc")  (str.++  "adabbbadbabdaaabbcbdcbcda" G "acdabccbcbaaacacbdababcbdaccdcdcdddcccaadccaaabbcdcbcbaddbdccddcacdacdc") ))
(assert (= (str.++  "cbdcabdbacbbaad" G "bdcadacbccabcbdaaaabccbdaabcaccdb" G "cc" G "baacdabcdacdbddadcccbac" G G "adbdadaccbdd" G "b")  (str.++  "cbdcab" G "acbbaad" G "bdcadacbccabcbdaaaabccbdaabcacc" G G "ccdbbaacdabcdacdbddadcccbacdb" G "a" G "dadaccbdd" G "b") ))
(assert (= (str.++  "baddacdcccddaaccabbbcacbbbbcabdbdbadaddbddabbbababbdbaca" G "abcacadbacccbcd" G "baaaddabcbadcaaabbaaccb")  (str.++  "baddacdcccddaaccabbbcacbbbbcab" G "dbadaddbddabbbababbdbaca" G "abcacadbacccbcd" G "baaaddabcbadcaaabbaaccb") ))
(assert (= (str.++  "ccbdcaca" G "abdaabdabadadcc" G "bbdaabbdcbbcbaaacaaaadaacabccaacdddbbbaabddaadaddccccaabaddadcbbadcadcc")  (str.++  "ccbdcaca" G "abdaabdabadadcc" G "bbdaabbdcbbcbaaacaaaadaacabccaacdd" G "bbaabddaadaddccccaabaddadcbbadcadcc") ))
(assert (= (str.++  "baaadbdcddcaadadacabbdbcaddccadda" G "ccaddbbdccdbbcbaccbdcacdabbcbdcbbbdd" G "cdabdddcbbacabbccdcadbccb")  (str.++  "baaa" G "dcddcaadadacabbdbcaddccaddadbccaddbbdccdbbcbaccbdcacdabbcbdcbbbdd" G "cdabdddcbbacabbccdcadbccb") ))
(assert (= (str.++  "abbaddaddcabccdbbbbbdacbccccabadacdd" G "dbcbaacacbbbdbaaadbddacdaddabbcacdcaaacbcbc" G "cdcbabbacabbbca")  (str.++  "abbaddaddcabcc" G "bbbbdacbccccabadacdddb" G "cbaacacbbb" G "aaa" G "ddacdaddabbcacdcaaacbcbcdbcdcbabbacabbbca") ))
(assert (= (str.++  "acbabacacbcbbcdccaabbbcb" G "acddaaddcc" G "bcaadadc" G "ccadbbaaaaadaaacbcbdcbccccbbacaaacddcbbddcbcdccbad")  (str.++  "acbabacacbcbbcdccaabbbcb" G "acddaaddccdbbcaadadcdbcca" G "baaaaadaaacbcbdcbccccbbacaaacddcbbddcbcdccbad") ))
(assert (= (str.++  "d" G "accbdcdabaadccbbddbab" G "b" G "ca" G "bbcbaadcdcbddbbbddadcbadcdcbcccacabacbaab" G "bacbd" G "adadddccdaccdad")  (str.++  "ddbaccbdcdabaadccbbd" G "ab" G "b" G "ca" G "bbcbaadcdcbddbbbddadcbadcdcbcccacabacbaab" G "bacbd" G "adadddccdaccdad") ))
(assert (= (str.++  "cabbbaccddabcb" G "ccccbaacacccabddcadcdabbdccaddadccdcba" G "ccacacdaacdbbbbcacabbbbbaadbdabbbdaddcccac")  (str.++  "cabbbaccddabcb" G "ccccbaacacccabddcadcdabbdccaddadccdcbadbccacacdaacdbbbbcacabbbbbaa" G "dabbbdaddcccac") ))
(assert (= (str.++  "cccdbcadadc" G "caaadcdddacacddccbbdacbdabdda" G "bddadcbbcbcbabdbbaddcaabdddbdcacadcacbdcbbabcabddcbbab")  (str.++  "cccdbcadadc" G "caaadcdddacacddccbbdacbdabddadbbddadcbbcbcbabdbbaddcaabdddbdcacadcacbdcbbabcabddcbbab") ))
(assert (= (str.++  "dcccccabcbccbbddddacdaacccadcccdcdccdbbd" G "daccaaabadcdabccaabaababababcabdaadcaaba" G G "bd" G "dcdccdbb")  (str.++  "dcccccabcbccbbddddacdaacccadcccdcdcc" G "bddbdaccaaabadcdabccaabaababababcabdaadcaabadbdbbddbdcdccdbb") ))
(assert (= (str.++  "bcaabaacaccabaadbca" G "aaaacdcddbbcddadcdddbdcabdaad" G "ccaaabcabdcacccddddbaacccbbcbcbdaaabccddccadcb")  (str.++  "bcaabaacaccabaa" G "ca" G "aaaacdcd" G "bcddadcdddbdcabdaad" G "ccaaabcabdcacccddd" G "aacccbbcbcbdaaabccddccadcb") ))
(assert (= (str.++  "bbcdbdaacaacdcbbcdcabdaccdbbcbccbaccda" G "bdadadddaabcadccabcdcdaaaddabbaacd" G "bbadcaaababbccdbad" G "cc")  (str.++  "bbcdbdaacaacdcbbcdcabdaccdbbcbccbaccdadbbdadadddaabcadccabcdcdaaaddabbaacd" G "bbadcaaababbccdbad" G "cc") ))
(assert (= (str.++  "cdcda" G "b" G "abdacdcadccaabcddadbccabbdcadcabccdbcbddccbbccbcbdbbcbaccbadcaadbdacabdbdcabcabbdaadabaa")  (str.++  "cdcda" G "b" G "abdacdcadccaabcddadbccabbdcadcabcc" G "cbddccbbccbcbdbbcbaccbadcaa" G "dacabdbdcabcabbdaadabaa") ))
(assert (= (str.++  "cabbabcdbcbccaccd" G "cababcddcadaddadcbbbbabddcbaccdabaacdaccbbacabadabccbcccccbcccaccdbbbaadbaccccb")  (str.++  "cabbabcdbcbccaccd" G "cababcddcadaddadcbbbbabddcbaccdabaacdaccbbacabadabccbcccccbcccacc" G "bbaadbaccccb") ))
(assert (= (str.++  "ccacdbabbcdcbbacaadacdac" G "abdcacccbbbdcbddcbccddacbacaabd" G "daccbdabbcdcdcaddadabccddcbaaadabcbadad")  (str.++  "ccac" G "abbcdcbbacaadacdac" G "abdcacccbbbdcbddcbccddacbacaabd" G "daccbdabbcdcdcaddadabccddcbaaadabcbadad") ))
(assert (= (str.++  "acaba" G "cccdabdad" G "abbbdbbdddacddbaaaabcac" G "dda" G "dbd" G "cbca" G "dbddcaccccccdbcdadbdcabcdacbdca" G "bdaddb")  (str.++  "acabadbcccdabdaddbabbb" G "bdddacddbaaaabcac" G "ddadb" G "d" G "cbcadb" G "ddcacccccc" G "cda" G "dcabcdacbdcadbbdaddb") ))
(assert (= (str.++  "dabbbcddccabaddaabdcdbcacbbadaaaabccdabccadddaddaba" G G "abcc" G "dcacdcbdadbbacdabbd" G "bcccbabbabbabbac")  (str.++  "dabbbcddccabaddaabdcdbcacbbadaaaabccdabccadddaddaba" G G "abccdbdcacdcbdadbbacdabbddbbcccbabbabbabbac") ))
(assert (= (str.++  "acaabcbbcabacccaadaa" G "c" G "dbabdbccdaddacdbcbbbbddcca" G "cacdbdcbacad" G "dca" G "aadcacaabcdcbbacbbbcbbdd" G)  (str.++  "acaabcbbcabacccaadaa" G "cdb" G "abdbccdaddac" G "cbbbbddcca" G "cacdbdcbacaddbdca" G "aadcacaabcdcbbacbbbcbbdddb") ))
(assert (= (str.++  "accacbddcd" G "bccaadbdabacbcbdcab" G "cabdadcbcacac" G "dcbdaacdddacbbbbbbccbbabcbaaaccbabadaadadcdcda" G "cc")  (str.++  "accacbddcd" G "bccaa" G "dabacbcbdcab" G "cabdadcbcacac" G "dcbdaacdddacbbbbbbccbbabcbaaaccbabadaadadcdcdadbcc") ))
(assert (= (str.++  "ddcaadcdccdddabcadaacddacaabdaddcdcbbcdcbdabccadbbbbcacbdacaacabcdccacacbdcdcadcbbabbccbbbc" G "bccdb")  (str.++  "ddcaadcdccdddabcadaacddacaabdaddcdcbbcdcbdabccadbbbbcacbdacaacabcdccacacbdcdcadcbbabbccbbbcdbbcc" G) ))
(assert (= (str.++  "badcdcbabcbccbbbcdadbbadaabdbabbaddcbbabaaccba" G "ddbdcacdabdacbabcacadacbdccacbcbbddcbbbadbbddcaadc")  (str.++  "badcdcbabcbccbbbcdadbbadaab" G "abbaddcbbabaaccba" G "d" G "dcacdabdacbabcacadacbdccacbcbbddcbbba" G "bddcaadc") ))
(assert (= (str.++  "ccdaacca" G "daaabcdcababbdcdcbdcacaabbdddaccabbaabcbaab" G "addddbbdcbaccacdab" G "babbcbcc" G "adadbccacccbc")  (str.++  "ccdaacca" G "daaabcdcababbdcdcbdcacaabbdddaccabbaabcbaab" G "addddbbdcbaccacdab" G "babbcbcc" G "ada" G "ccacccbc") ))
(assert (= (str.++  "aadacbdababadcbbcb" G "abaabaadcccddcccddadcddcacaadccbcddacddcbcbbaba" G "bccabdddabacd" G "b" G "ccabadbdaad")  (str.++  "aadacbdababadcbbcbdbabaabaadcccddcccddadcddcacaadccbcddacddcbcbbaba" G "bccabdddabacd" G "bdbccaba" G "daad") ))
(assert (= (str.++  "caababdcaadcaccdcacddcccdacd" G "aadacadbaccbcccbc" G "cbdbddcbbcdbbacacadaabdabd" G G "adadaadccdbdcacdcab")  (str.++  "caababdcaadcaccdcacddcccdacddbaadaca" G "accbcccbcdbcbdbddcbbcdbbacacadaabdabd" G "dbadadaadcc" G "dcacdcab") ))
(assert (= (str.++  "dbabcaccabbcdcaaaaddacaabbbbaab" G "bcbbadcabbbbcdddaa" G "caccbcaaaacdcdacb" G "bdbada" G "bccaccdbaa" G "acdaab")  (str.++  "dbabcaccabbcdcaaaaddacaabbbbaabdbbcbbadcabbbbcdddaadbcaccbcaaaacdcdacbdbb" G "ada" G "bccacc" G "aadbacdaab") ))
(assert (= (str.++  "ccdbbbaacdbdcabaccbbcacdcddaaab" G "cdddbcbabaaccbbbbbcabb" G "bbbbddaacdbcadaaaccaaacccbdbdd" G "dccabcdaa")  (str.++  "ccdbbbaacdbdcabaccbbcacdcddaaab" G "cdddbcbabaaccbbbbbcabb" G "bbbbddaacdbcadaaaccaaacccb" G "dd" G "dccabcdaa") ))
(assert (= (str.++  "cbbbbd" G "abadaaacbddccacdcdaabdddccbcdcbaacddcbabbbbbcdabccddbbcacdabdaadddcaabbacbacccbdaaadcbdcba")  (str.++  "cbbbbd" G "abadaaacbddccacdcdaabdddccbcdcbaacddcbabbbbbcdabccd" G "bcacdabdaadddcaabbacbacccbdaaadcbdcba") ))
(assert (= (str.++  "ddaaccaaccacc" G "cdcabbdadaabccacbbbdabbccbabcdcbbdcbbbbacbddabacdddbcdabccba" G "baccbccdabdccbccbbdbc")  (str.++  "ddaaccaaccacc" G "cdcabbdadaabccacbbbdabbccbabcdcbbdcbbbbacbddabacdd" G "cdabccbadbbaccbccdabdccbccbb" G "c") ))
(assert (= (str.++  "bdaad" G "bdcbbccbad" G "acdaacddccd" G "dcccbbbaccacbcbccdacdaacccacbbadacc" G "caaadacaadcadbbddaddcacbcacbb")  (str.++  "bdaad" G "bdcbbccbad" G "acdaacddccddbdcccbbbaccacbcbccdacdaacccacbbadaccdbcaaadacaadcadbbddaddcacbcacbb") ))
(assert (= (str.++  "babacabcca" G "bcbdb" G "bbddbaabccdbabdccaabbbdabdabb" G "dacbcbbcdcbaccd" G "bbaba" G "abbbaacdaddbacccddcdbcba")  (str.++  "babacabcca" G "bcbdb" G "bbd" G "aabcc" G "abdccaabbbdabdabbdbdacbcbbcdcbaccd" G "bbabadbabbbaacdad" G "acccddcdbcba") ))
(assert (= (str.++  "ccca" G "bcaccaadcbaddccbbdcabdaaccacdbdaacdcdacc" G "cbdbdbbd" G "ddaacabcbccabacbaacdbcaabccaaacdadaaacad")  (str.++  "ccca" G "bcaccaadcbaddccbbdcabdaaccacdbdaacdcdacc" G "cb" G "dbbddbddaacabcbccabacbaacdbcaabccaaacdadaaacad") ))
(assert (= (str.++  "bbcdbabbbbcddaacbbddb" G "cbcaabacabdccdddcaddadbacaacdcacccabcabdadccac" G "accbdbdaabcccdcdccaacbacaab")  (str.++  "bbc" G "abbbbcddaacbbddb" G "cbcaabacabdccdddcadda" G "acaacdcacccabcabdadccac" G "accb" G "daabcccdcdccaacbacaab") ))
(assert (= (str.++  "bcdcdcdabaccabdcbbaaccbbdbddabbabacabccabcbdcdaabbbccdaaabbbabaaccaddbcacdcbacdbccddaccbbbcbbbdaad" "")  (str.++  "bcdcdcdabaccabdcbbaaccbbdbddabbabacabccabcbdcdaabbbccdaaabbbabaaccad" G "cacdcbacdbccddaccbbbcbbbdaad") ))
(assert (= (str.++  "adaaaaabccccdbacbabcbdaacbaabbdaadaccabdcdacddaccddadcbcbbaabcabcccbadcbcaabacabdcbaacddd" G "bbbbdaa")  (str.++  "adaaaaabcccc" G "acbabcbdaacbaabbdaadaccabdcdacddaccddadcbcbbaabcabcccbadcbcaabacabdcbaacddddbbbbbdaa") ))
(assert (= (str.++  "bbcadccbdaaccabccaccdcaaaabdacbdaccaddcdaacddbdddcbcacaddcdabbbbadbaddaabacddca" G "adc" G "abdcabacacbc")  (str.++  "bbcadccbdaaccabccaccdcaaaabdacbdaccaddcdaacd" G "dddcbcacaddcdabbbba" G "addaabacddcadbadc" G "abdcabacacbc") ))
(assert (= (str.++  "cbbbcddacabccbadcbbabdcaacdabccdcbbab" G "accdcccabdabaababddcb" G "dbddc" G "cddbccdbaacacabdaccbaabbcdbbb")  (str.++  "cbbbcddacabccbadcbbabdcaacdabccdcbbab" G "accdcccabdabaababddcb" G "dbddcdbcd" G "ccdbaacacabdaccbaabbc" G "bb") ))
(assert (= (str.++  "cacaabccdaddcbacbdabbcabbabcbadcbccaacaabac" G "cabcdabdcdcbcbacdcaddabacdadbadddddabdbddadbcdddccbab")  (str.++  "cacaabccdaddcbacbdabbcabbabcbadcbccaacaabac" G "cabcdabdcdcbcbacdcaddabacdadbadddddabdbddadbcdddccbab") ))
(assert (= (str.++  "bbdabddadd" G "ddaaacbdbaddcdbccaccbcccbacdaababdbdcaacaccaacbdacdabbcaaccbccbcdcccddcbaddddcbcbdcdac")  (str.++  "bbdabddadd" G "ddaaacb" G "addcdbccaccbcccbacdaabab" G "dcaacaccaacbdacdabbcaaccbccbcdcccddcbaddddcbcbdcdac") ))
(assert (= (str.++  "aadcacdbcdaccbdbcaaadaabdcddddbdaacddddbbaabcbbbdadacdbbccaaaccdabdddcbaccdcabaaaacaadcbccadccaddb" "")  (str.++  "aadcac" G "cdaccb" G "caaadaabdcddd" G "daacddddbbaabcbbbdadacdbbccaaaccdabdddcbaccdcabaaaacaadcbccadccaddb") ))
(assert (= (str.++  "dbaadabdadcbad" G "daccaacabddaaccacdcdabcddaadbbbabbcaaccadaddbdddcdbbbdadcaaadabcbabdccacaadd" G "aa" G)  (str.++  G "aadabdadcbad" G "daccaacabddaaccacdcdabcddaa" G "bbabbcaaccadaddbdddc" G "bbdadcaaadabcbabdccacaadd" G "aadb") ))
(assert (= (str.++  "addcbbcbdaaccbadcaddadbbbadbaabdddddadaddbbcbdcabdbaadabaaaddbcadbdccbccdaacbca" G "dddbcaaddaccbdadc")  (str.++  "addcbbcbdaaccbadcaddadbbba" G "aabdddddadaddbbcbdcabdbaadabaaaddbca" G "dccbccdaacbca" G "dd" G "caaddaccbdadc") ))
(assert (= (str.++  "abdabdcccaccbaabddcdbdb" G "bcdcddabaabaccaaabaaabbddddcdcdccacdbcbbddacbaacbabddddcdcdcbabdbbbadcbcd")  (str.++  "abdabdcccaccbaabddc" G G "dbbcdcddabaabaccaaabaaabbddddcdcdccac" G "cbbddacbaacbabddddcdcdcbab" G "bbadcbcd") ))
(assert (= (str.++  "cdbbbdbbcadacb" G "bdabcbaabbcbcadacbbd" G "ddbadbabccbbaaabbaccaadcdcdabaccabbabbcdaacabdadaadaaabdccdd")  (str.++  "c" G "bb" G "bcadacbdbbdabcbaabbcbcadacbbd" G "d" G "a" G "abccbbaaabbaccaadcdcdabaccabbabbcdaacabdadaadaaabdccdd") ))
(assert (= (str.++  "bcdaddabacbdc" G "cdabdc" G "dadaaadbdddacdcc" G "ddddc" G "abdcbcbbddccadcdaababcbbcaddadaaacadcdadbaddcbabaa")  (str.++  "bcdaddabacbdcdbcdabdcdbdadaaadbdddacdccdbddddcdbabdcbcbbddccadcdaababcbbcaddadaaacadcda" G "addcbabaa") ))
(assert (= (str.++  "ddbcbaaadbcabccccdccaddaad" G "ac" G "cbabcaaccbbacabddcbaaaaabaabdcbbcabbbbcdcaddbdacbcaa" G "acc" G "dabacdb")  (str.++  "ddbcbaaa" G "cabccccdccaddaaddbac" G "cbabcaaccbbacabddcbaaaaabaabdcbbcabbbbcdcaddbdacbcaa" G "acc" G "dabac" G) ))
(assert (= (str.++  "c" G "acbaa" G "cbadaabcadddbbabbccbdadaadaddddcaaccbbcbcaaaddcbaadaa" G "bbcabdaadbdbabcabaaca" G "bbdcacdada")  (str.++  "cdbacbaadbcbadaabcadddbbabbccbdadaadaddddcaaccbbcbcaaaddcbaadaa" G "bbcabdaa" G "dbabcabaaca" G "bbdcacdada") ))
(assert (= (str.++  G "d" G "bcaaddbcaacabbbabcbbabdbacaddcbacbcbabb" G "addcbbcbabddbdabadd" G "cdcbcbcdcbbbddaabdbbaabcbda" G "bc")  (str.++  G "d" G "bcaad" G "caacabbbabcbbab" G "acaddcbacbcbabbdbaddcbbcbabd" G "dabadddbcdcbcbcdcbbbddaabdbbaabcbda" G "bc") ))
(assert (= (str.++  "caaddaddaacbab" G "ccdaabbdabcbcbdbabdddcdaaabbdbcdadcbccadaddcabdadaabbcdcabdcabcdcacbaa" G "bcdbbadcdc")  (str.++  "caaddaddaacbab" G "ccdaabbdabcbcbdbabdddcdaaabbdbcdadcbccadaddcabdadaabbcdcabdcabcdcacbaa" G "bc" G "badcdc") ))
(assert (= (str.++  "dcdaccbabaabaaacbabbcacbdaabbdcdadcddcaabbb" G "baaadbacacacccddacbbbbdddcbdac" G "bacbbbdcdd" G "abbabadad")  (str.++  "dcdaccbabaabaaacbabbcacbdaabbdcdadcddcaabbb" G "baaa" G "acacacccddacbbbbdddcbdac" G "bacbbbdcdddbabbabadad") ))
(assert (= (str.++  "cdabacdcaabbbaabacddabccdada" G "bbbcbabddcadcddaacccbcbcdcaaadaccbbcadcacddcbddcdbbdbabccabcacdcbccb")  (str.++  "cdabacdcaabbbaabacddabccdada" G "bbbcbabddcadcddaacccbcbcdcaaadaccbbcadcacddcbddcdbbdbabccabcacdcbccb") ))
(assert (= (str.++  "dabcac" G "baabccdcdabdcccddb" G "cdbcddcdcaaaacacdddaccbbccddbadcabaabacdaaacbbaaabddabacbdaadcdbdaccdd")  (str.++  "dabcac" G "baabccdcdabdcccddb" G "cdbcddcdcaaaacacdddaccbbccd" G "adcabaabacdaaacbbaaabddabacbdaadcdbdaccdd") ))
(assert (= (str.++  "ccbbddcdbddccacabbcbbcddabbabbad" G "cbaaacbbcccaccbbcbbcabacddcaacadcbcadcdaabcdccddcbbbcbbcddcdadca")  (str.++  "ccbbddc" G "ddccacabbcbbcddabbabbaddbcbaaacbbcccaccbbcbbcabacddcaacadcbcadcdaabcdccddcbbbcbbcddcdadca") ))
(assert (= (str.++  "adbadbacbbcbd" G "ccabcbbbdaaaadccadaca" G "cbaabcabbaaddacabbdadabdbbadcccccb" G "baaaa" G "ddccdbacadcabadaa")  (str.++  "a" G "adbacbbcbd" G "ccabcbbbdaaaadccadacadbcbaabcabbaaddacabbdadabdbbadcccccbdbbaaaa" G "ddcc" G "acadcabadaa") ))
(assert (= (str.++  "daccbcbabaabbcccbdcbdcccaaabadcccbbacbbccdccabcbbbaddcabbbada" G "dcadcbbbcbdcdabbcbcdabbdcaaddbdcccc")  (str.++  "daccbcbabaabbcccbdcbdcccaaabadcccbbacbbccdccabcbbbaddcabbbada" G "dcadcbbbcbdcdabbcbcdabbdcaaddbdcccc") ))
(assert (= (str.++  "ccccccdab" G "aacddaaabdcdabdd" G "ccdddabcddccddaabdacdabbbadcaccdcdaccbccbbccabccdcccacda" G "abaacbacdab")  (str.++  "ccccccdabdbaacddaaabdcdabdd" G "ccdddabcddccddaabdacdabbbadcaccdcdaccbccbbccabccdcccacda" G "abaacbacdab") ))
(assert (= (str.++  "dcacddabdcbdccabacdcbddaddbbccbdabddbdaaacbaacccccaadabaaddcdccdadda" G "cddccacd" G "acccbdad" G "bcdcdacb")  (str.++  "dcacddabdcbdccabacdcbddaddbbccbdabd" G "daaacbaacccccaadabaaddcdccdadda" G "cddccacddbacccbdad" G "bcdcdacb") ))
(assert (= (str.++  "cbcdbdaacabbccaaaababdcbdcadccbdbcdadac" G "bccddbacabdadcadccccbbbcbcdcadcbccabdcbbaacdabbadcdacdcba")  (str.++  "cbcdbdaacabbccaaaababdcbdcadccb" G "cdadac" G "bccd" G "acabdadcadccccbbbcbcdcadcbccabdcbbaacdabbadcdacdcba") ))
(assert (= (str.++  G "cddaadcbdababcbcdcddddaaaaacbdbccccccaaadddababcbbcbcdcdbdda" G "cbdacbb" G "bbdaac" G "bbccddcaaadbcacdd")  (str.++  G "cddaadcbdababcbcdcddddaaaaacb" G "ccccccaaadddababcbbcbcdc" G "ddadbcbdacbbdbbbdaac" G "bbccddcaaadbcacdd") ))
(assert (= (str.++  "ddcadccadcddcababaacdaaacc" G "bcddbbdcdcccbbaccbddb" G "caddaaccccabaaacbbdcabaa" G "cdacbba" G "dcbbacadcaab")  (str.++  "ddcadccadcddcababaacdaaaccdbbcddbbdcdcccbbaccbddb" G "caddaaccccabaaacbbdcabaa" G "cdacbbadbdcbbacadcaab") ))
(assert (= (str.++  "dddbbdaacccccccacaadccbdcadcdccdddcb" G "baabbcdcdcdcaadadbabbcbadddaa" G "bccdcbbcdcbcacabbb" G "aabdabcbb")  (str.++  "dd" G "bdaacccccccacaadccbdcadcdccdddcbdbbaabbcdcdcdcaada" G "abbcbadddaa" G "bccdcbbcdcbcacabbb" G "aabdabcbb") ))
(assert (= (str.++  "baabcaccaacadaabbbdddccabccaaabdbbacadcda" G "daaacabcbaccbbbd" G "abdccdbbacddaacdacacaacacbaadcddccdcd")  (str.++  "baabcaccaacadaabbbdddccabccaaab" G "bacadcda" G "daaacabcbaccbbbd" G "abdcc" G "bacddaacdacacaacacbaadcddccdcd") ))
(assert (= (str.++  "dacddddadaaccaddcbbdddadccaaacbdd" G "bcaaacdcbad" G "acddcdabacbabbbbbccdaabddbaddbd" G "cadadadabbaccaadd")  (str.++  "dacddddadaaccaddcbbdddadccaaacbdd" G "bcaaacdcbad" G "acddcdabacbabbbbbccdaabddbad" G "ddbcadadadabbaccaadd") ))
(assert (= (str.++  "dacbcabbdbadadbccdcaadacddacada" G "ccadabcadacddaacbaccabacbdcbabcbbbbabcbcabbacbcab" G "abcaaca" G "da" G "b")  (str.++  "dacbcabbdbada" G "ccdcaadacddacada" G "ccadabcadacddaacbaccabacbdcbabcbbbbabcbcabbacbcabdbabcaaca" G "da" G "b") ))
(assert (= (str.++  "adaabcabaaaadcdddbbcbcdccdbddcbccabbaadadadcdbbaaadacdcdbcadaaababbdadadbccbbcacabcdb" G "ababaaccbaa")  (str.++  "adaabcabaaaadcdddbbcbcdcc" G "ddcbccabbaadadadcdbbaaadacdc" G "cadaaababbdadadbccbbcacabc" G G "ababaaccbaa") ))
(assert (= (str.++  "ddc" G "cccdaacabaacbcadcabccccddbadabccac" G "cdcbdcbdcbcbdcdcaddcaccacaaccaccbddabaddcbabbdcddbdbdaabb")  (str.++  "ddcdbcccdaacabaacbcadcabccccd" G "adabccacdbcdcbdcbdcbcbdcdcaddcaccacaaccaccbddabaddcbabbdcd" G G "daabb") ))
(assert (= (str.++  "cd" G "cabccdacdcbabbcacccabbcadcabdccccccb" G "cdabbccbbbbdaddadaacbadabadddc" G "dacbcaaacbcdacaccbddaccb")  (str.++  "cddbcabccdacdcbabbcacccabbcadcabdccccccbdbcdabbccbbbbdaddadaacbadabadddc" G "dacbcaaacbcdacaccbddaccb") ))
(assert (= (str.++  "baacaaccdaddababdcbddcadcabbbbcbdccbdabbbbcccabccacbbbdbcaadabaccddddcbdccbbbccaaac" G "cabbbacacabcb")  (str.++  "baacaaccdaddababdcbddcadcabbbbcbdccbdabbbbcccabccacbbbdbcaadabaccddddcbdccbbbccaaac" G "cabbbacacabcb") ))
(assert (= (str.++  "dcadbabbddbbbdcdccbcccaadcdcdcacacddcab" G "cddddcaaa" G "bcddaccbcadddcbbcb" G "bbbabbbddcaccbacbcbcccabad")  (str.++  "dcadbabbd" G "bbdcdccbcccaadcdcdcacacddcabdbcddddcaaadbbcddaccbcadddcbbcb" G "bbbabbbddcaccbacbcbcccabad") ))
(assert (= (str.++  "dcdcdcbccdca" G "a" G "cccdacbbddcddc" G "dbcadc" G "aadbd" G "bac" G "aacdabcdbaddbaccabcbbbccbbdcbabdababbababbaba")  (str.++  "dcdcdcbccdcadbadbcccdacbbddcddc" G "dbcadcdbaadbddbbacdbaacdabcdbaddbaccabcbbbccbbdcbabdababbababbaba") ))
(assert (= (str.++  "cabdaba" G "b" G "daccdddcd" G "acdcaaaaccacabcacaaadbcaaabdccccddaccaccdbc" G "cabadadcaabcadaaacdcdbcdbdccbd")  (str.++  "cabdabadbb" G "daccdddcd" G "acdcaaaaccacabcacaaa" G "caaabdccccddaccaccdbcdbcabadadcaabcadaaacdc" G "c" G "dccbd") ))
(assert (= (str.++  "dddabbababcbdbbcacbbdabbcbbba" G "acbaacdaabbbadcdcdcdcacadacddccabccbabaccaababacdddaad" G "dabacbc" G "ca")  (str.++  "dddabbababcb" G "bcacbbdabbcbbba" G "acbaacdaabbbadcdcdcdcacadacddccabccbabaccaababacdddaaddbdabacbcdbca") ))
(assert (= (str.++  "daacccdadcdcb" G "cccdccacbbadacbacbddcbbcadabcdaaddaacaacbadcadacddcdbcbccdbcdddaabcabdaadacacdacdda")  (str.++  "daacccdadcdcbdbcccdccacbbadacbacbddcbbcadabcdaaddaacaacbadcadacddc" G "cbcc" G "cdddaabcabdaadacacdacdda") ))
(assert (= (str.++  "d" G "bbbbdcaaccbbbbcaadcbbdadcdcdbbcbddcadcaaaaabaabdddabbaaccbbbd" G "babcbcacacbcccdb" G "accabccdcdcdbc")  (str.++  "d" G "bbbbdcaaccbbbbcaadcbbdadcdc" G "bcbddcadcaaaaabaabdddabbaaccbbbddbbabcbcacacbcccdbdbaccabccdcdc" G "c") ))
(assert (= (str.++  "ccddacbbaaccddabcddaaaadacacbbcadaacdcbbcdacaddababbcaadabbaaabcdacdcdcccdabcacadaa" G "cbdaaadabcabc")  (str.++  "ccddacbbaaccddabcddaaaadacacbbcadaacdcbbcdacaddababbcaadabbaaabcdacdcdcccdabcacadaadbcbdaaadabcabc" "") ))
(assert (= (str.++  "cbcabbbdadabbbcbdadcdaad" G "dbcdcaadcababccaabaadbadcbbba" G "cba" G "adddbddccbcaacabb" G "dacbbbccbdcaaccdc")  (str.++  "cbcabbbdadabbbcbdadcdaaddb" G "cdcaadcababccaabaa" G "adcbbba" G "cbadbadd" G "ddccbcaacabbdbdacbbbccbdcaaccdc") ))
(assert (= (str.++  "cbbbadbdabbcbddaabccacbbaabbbdc" G "babccddbdaaccbccbbcadddacabcadcbcdabdabcacdddbacbdacccdaddccacaac")  (str.++  "cbbba" G "dabbcbddaabccacbbaabbbdc" G "babccddbdaaccbccbbcadddacabcadcbcdabdabcacdddbacbdacccdaddccacaac") ))
(check-sat)
(get-model)
